n_machines = 5;
n_resources = 7;
n_jobs = 19;
horizon = 10230;
LB = 2563;
n_jobs_per_resource = [1, 3, 2, 4, 4, 4, 1];
duration = [95, 872, 931, 397, 800, 102, 221, 487, 624, 633, 204, 470, 772, 255, 888, 776, 92, 807, 804]